
Gurobi 9.5.0 (win64) logging started Mon Jun  6 17:28:25 2022

Set parameter LogFile to value "C:\Users\kmajd1\Documents\NNRepLayer_v2\demos\examples\tc7_walking_example\repair_net/logs/opt_log_6_6_2022_17_28_4.log"
Gurobi Optimizer version 9.5.0 build v9.5.0rc5 (win64)
Thread count: 8 physical cores, 16 logical processors, using up to 16 threads
Optimize a model with 366 rows, 134 columns and 992 nonzeros
Model fingerprint: 0xe9f08f2c
Model has 101 quadratic objective terms
Coefficient statistics:
  Matrix range     [1e-02, 2e+01]
  Objective range  [3e-03, 4e-01]
  QObjective range [2e-02, 2e+00]
  Bounds range     [1e+01, 4e+01]
  RHS range        [2e-03, 3e+01]
Presolve removed 224 rows and 13 columns
Presolve time: 0.01s
Presolved: 142 rows, 121 columns, 754 nonzeros
Presolved model has 101 quadratic objective terms
Ordering time: 0.00s

Barrier statistics:
 Dense cols : 10
 AA' NZ     : 1.053e+03
 Factor NZ  : 1.606e+03
 Factor Ops : 2.616e+04 (less than 1 second per iteration)
 Threads    : 1

                  Objective                Residual
Iter       Primal          Dual         Primal    Dual     Compl     Time
   0   1.61346080e+07 -1.73613408e+07  3.40e+03 4.18e+02  8.94e+05     0s
   1   5.34554772e+06 -6.55787958e+06  1.86e+03 2.29e+02  4.97e+05     0s
   2   3.23477989e+04 -1.78996601e+06  1.63e+02 2.00e+01  6.25e+04     0s
   3   2.79557201e+02 -1.42844428e+06  2.29e+01 2.81e+00  1.17e+04     0s
   4   1.55163893e+02 -9.02217736e+05  4.88e+00 5.99e-01  4.12e+03     0s
   5   2.81604321e+02 -1.58304638e+05  1.37e-01 1.68e-02  5.60e+02     0s
   6   2.78129141e+02 -1.35818306e+03  1.07e-03 1.31e-04  5.72e+00     0s
   7   9.37139697e+01 -1.66703051e+02  5.85e-05 7.17e-06  9.11e-01     0s
   8   2.76733121e+01 -5.52076517e+01  5.85e-11 7.17e-12  2.90e-01     0s
   9   2.06640473e+01 -1.77994501e+01  2.58e-11 3.17e-12  1.34e-01     0s
  10   2.27327555e+01 -5.95378545e+00  5.02e-12 6.16e-13  1.00e-01     0s
  11   1.86121513e+01  1.72989202e+01  5.33e-14 6.11e-15  4.59e-03     0s
  12   1.85181981e+01  1.84505114e+01  1.01e-12 2.70e-11  2.37e-04     0s
  13   1.85062401e+01  1.84974487e+01  7.74e-12 1.92e-10  3.07e-05     0s
  14   1.85048073e+01  1.85045297e+01  2.10e-11 3.69e-10  9.71e-07     0s
  15   1.85047522e+01  1.85047436e+01  3.76e-11 3.17e-10  3.00e-08     0s
  16   1.85047499e+01  1.85047489e+01  1.14e-09 1.12e-09  3.71e-09     0s
  17   1.85047498e+01  1.85047498e+01  1.58e-09 1.23e-10  1.61e-10     0s

Barrier solved model in 17 iterations and 0.04 seconds (0.00 work units)
Optimal objective 1.85047498e+01


Gurobi 9.5.0 (win64) logging started Mon Jun  6 17:28:41 2022

Set parameter LogFile to value "C:\Users\kmajd1\Documents\NNRepLayer_v2\demos\examples\tc7_walking_example\repair_net/logs/opt_log_6_6_2022_17_28_4.log"
Gurobi Optimizer version 9.5.0 build v9.5.0rc5 (win64)
Thread count: 8 physical cores, 16 logical processors, using up to 16 threads
Optimize a model with 28012 rows, 17157 columns and 79436 nonzeros
Model fingerprint: 0xdc1fbdb9
Model has 101 quadratic objective terms
Variable types: 7557 continuous, 9600 integer (9600 binary)
Coefficient statistics:
  Matrix range     [9e-03, 4e+01]
  Objective range  [3e-03, 4e-01]
  QObjective range [2e-02, 2e+00]
  Bounds range     [1e+00, 4e+01]
  RHS range        [6e-04, 4e+01]
Presolve removed 16456 rows and 6528 columns
Presolve time: 0.14s
Presolved: 11556 rows, 10629 columns, 53124 nonzeros
Presolved model has 101 quadratic objective terms
Variable types: 7429 continuous, 3200 integer (3200 binary)
Root relaxation presolve removed 3200 rows and 3200 columns
Root relaxation presolved: 8356 rows, 7429 columns, 46724 nonzeros
Root relaxation presolved model has 101 quadratic objective terms


Root relaxation: objective 9.457430e+00, 10842 iterations, 0.96 seconds (1.69 work units)

    Nodes    |    Current Node    |     Objective Bounds      |     Work
 Expl Unexpl |  Obj  Depth IntInf | Incumbent    BestBd   Gap | It/Node Time

     0     0    9.45743    0  696          -    9.45743      -     -    2s
     0     0    9.45743    0  526          -    9.45743      -     -    7s
     0     0    9.45743    0  526          -    9.45743      -     -    8s
     0     0    9.45743    0  543          -    9.45743      -     -    8s
     0     0    9.45743    0  540          -    9.45743      -     -    8s
     0     0    9.45743    0  202          -    9.45743      -     -    9s
     0     0    9.45743    0  560          -    9.45743      -     -    9s
     0     0    9.45743    0  590          -    9.45743      -     -   10s
     0     0    9.45743    0  590          -    9.45743      -     -   10s
     0     0    9.45743    0  565          -    9.45743      -     -   10s
     0     0    9.45743    0  565          -    9.45743      -     -   11s
H    0     0                      11.6122043    9.45743  18.6%     -   13s
H    0     0                      11.6008724    9.45743  18.5%     -   15s
     0     2    9.45743    0  565   11.60087    9.45743  18.5%     -   15s
    31    40    9.68160    6  950   11.60087    9.45743  18.5%   520   22s
H   32    40                      11.5999852    9.45743  18.5%   504   22s
H   33    40                      11.5870164    9.45743  18.4%   489   22s
H   35    40                      11.5807365    9.45743  18.3%   462   22s
   868   915    9.68160  109  874   11.58074    9.45743  18.3%  35.5   25s
H 1069  1078                      11.3938933    9.45743  17.0%  33.9   28s
  1130  1210    9.68160  141  799   11.39389    9.45743  17.0%  32.6   30s
  2848  3097    9.68160  315  642   11.39389    9.45743  17.0%  23.0   35s
  5248  5792    9.68160  608  354   11.39389    9.45743  17.0%  17.2   40s
  6278  6287    9.68160  758  255   11.39389    9.45743  17.0%  17.9   47s
  6948  7566    9.72259  774  234   11.39389    9.45743  17.0%  23.1   50s
  7566  7567    9.68160  377  565   11.39389    9.45743  17.0%  23.3   55s
H 7567  7189                      11.3929676    9.45743  17.0%  23.3   57s
H 7567  6830                      11.3778418    9.45743  16.9%  23.3   57s
  7570  6832    9.68160  430  544   11.37784    9.45743  16.9%  23.3   60s
H 7571  6490                      11.3771773    9.45743  16.9%  23.3   62s
H 7573  6167                      11.3710948    9.45743  16.8%  23.3   66s
H 7574  5859                      11.3632058    9.45743  16.8%  23.3   67s
  7577  5861    9.45743  434  588   11.36321    9.45743  16.8%  23.3   70s
H 7579  5571                      11.3337577    9.45743  16.6%  25.7   72s
  7594  5588    9.49201   19  649   11.33376    9.45743  16.6%  26.7   75s
H 7610  5320                      11.3328565    9.45743  16.5%  27.3   78s
H 7611  5055                      11.3294574    9.45743  16.5%  27.3   78s
H 7613  4802                      11.3242519    9.45743  16.5%  27.3   78s
  7762  4923    9.49201   28  636   11.32425    9.45743  16.5%  30.2   80s
  8632  5485    9.49201   57  590   11.32425    9.45743  16.5%  36.2   89s
  8640  5496    9.50696   57  609   11.32425    9.45743  16.5%  36.2   91s
H 8705  5294                      11.3170920    9.45743  16.4%  36.7   98s
H 8706  5067                      11.3144591    9.45743  16.4%  36.8   98s
H 8707  4852                      11.2925142    9.45743  16.3%  36.8   98s
  8883  4999    9.55859   69  646   11.29251    9.45743  16.3%  38.0  101s
 10216  6013    9.49201  117  501   11.29251    9.45743  16.3%  40.4  105s

Cutting planes:
  Gomory: 1
  Implied bound: 1
  MIR: 574
  Flow cover: 763

Explored 12362 nodes (561156 simplex iterations) in 109.97 seconds (185.20 work units)
Thread count was 16 (of 16 available processors)

Solution count 10: 11.2925 11.3145 11.3171 ... 11.3772

Solve interrupted
Best objective 1.129251420022e+01, best bound 9.457431951715e+00, gap 16.2504%
